% From JaCoP's nonogramRepository/data098.nin
 rows = 30;
 row_rule_len = 4;
 row_rules = array2d(1..rows, 1..row_rule_len, 
[
 0,0,0,6,
 0,0,0,10,
 0,0,0,13,
 0,0,0,15,
 0,0,0,16,
 0,0,0,18,
 0,0,12,5,
 0,0,7,7,
 0,0,0,18,
 0,5,7,2,
 0,1,1,2,
 0,1,1,3,
 0,2,1,2,
 0,1,1,2,
 1,1,2,4,
 0,2,1,9,
 1,1,4,2,
 0,1,1,4,
 0,2,2,4,
 0,1,1,4,
 1,1,2,1,
 0,1,2,2,
 0,1,1,2,
 0,1,1,2,
 0,1,2,3,
 0,0,1,1,
 0,0,1,1,
 0,0,1,2,
 0,0,1,1,
 0,0,7,7
]);

 cols = 25;
 col_rule_len = 4;
 col_rules = array2d(1..cols, 1..col_rule_len, 
[
 0,0,1,1,
 0,0,2,2,
 0,0,0,6,
 0,0,7,1,
 0,0,8,1,
 0,0,7,12,
 0,8,4,1,
 0,9,4,1,
 0,0,13,1,
 0,7,2,1,
 0,0,7,11,
 0,7,2,4,
 6,3,4,1,
 6,3,4,1,
 0,0,8,3,
 0,8,5,1,
 0,0,15,1,
 0,9,2,1,
 0,4,2,1,
 0,0,0,3,
 0,0,2,1,
 0,2,4,1,
 0,0,0,11,
 0,0,5,3,
 0,0,0,4
]);

